;; sequence(s): A53615
;; terms: 0 1 0 1 2 1 0 1 2 3 2 1 0 1 2 3 4 3 2 1
;; small program: loop(((loop(loop(y, (x - y) - y, x), x, 1 + x) + y) div (2 + x)) + x, x, x) - x
;; fast program: ((loop(loop(((loop((loop2(loop(x + y, x, y) div (2 + x), y, 1 + 2, 2, (x - 2) div 2) + 2) + x, 2, x) + 1) + x) mod 2, 1, y) + x, x - 1, 1) * 2) - x) mod (1 + x)
(set-logic UFNIA)
(define-fun divf ((a Int) (b Int)) Int (ite (< 0 b) (div a b) (div (- a) (- b))))
(define-fun modf ((a Int) (b Int)) Int (ite (< 0 b) (mod a b) (- (mod (- a) (- b)))))
(declare-fun f2 (Int Int) Int)
(declare-fun g2 (Int Int) Int)
(declare-fun h2 (Int) Int)
(declare-fun u2 (Int Int) Int)
(declare-fun v2 (Int Int) Int)
(declare-fun f1 (Int Int) Int)
(declare-fun g1 (Int) Int)
(declare-fun h1 (Int) Int)
(declare-fun u1 (Int Int) Int)
(declare-fun v1 (Int) Int)
(declare-fun f0 (Int Int) Int)
(declare-fun g0 (Int) Int)
(declare-fun h0 (Int) Int)
(declare-fun u0 (Int Int) Int)
(declare-fun v0 (Int) Int)
(declare-fun small (Int) Int)
(declare-fun f7 (Int Int) Int)
(declare-fun g7 (Int) Int)
(declare-fun h7 (Int Int) Int)
(declare-fun u7 (Int Int) Int)
(declare-fun v7 (Int Int) Int)
(declare-fun f6 (Int Int) Int)
(declare-fun g6 (Int Int) Int)
(declare-fun h6 () Int)
(declare-fun i6 () Int)
(declare-fun j6 (Int) Int)
(declare-fun u6 (Int Int Int) Int)
(declare-fun v6 (Int Int Int) Int)
(declare-fun w6 (Int) Int)
(declare-fun f5 (Int) Int)
(declare-fun g5 () Int)
(declare-fun h5 (Int) Int)
(declare-fun u5 (Int Int) Int)
(declare-fun v5 (Int) Int)
(declare-fun f4 (Int) Int)
(declare-fun g4 () Int)
(declare-fun h4 (Int Int) Int)
(declare-fun u4 (Int Int) Int)
(declare-fun v4 (Int Int) Int)
(declare-fun f3 (Int Int) Int)
(declare-fun g3 (Int) Int)
(declare-fun h3 () Int)
(declare-fun u3 (Int Int) Int)
(declare-fun v3 (Int) Int)
(declare-fun fast (Int) Int)
(assert (forall ((x Int) (y Int)) (= (f2 x y) y)))
(assert (forall ((x Int) (y Int)) (= (g2 x y) (- (- x y) y))))
(assert (forall ((x Int)) (= (h2 x) x)))
(assert (forall ((x Int) (y Int)) (= (u2 x y) (ite (<= x 0) y (f2 (u2 (- x 1) y) x)))))
(assert (forall ((x Int) (y Int)) (= (v2 x y) (u2 (g2 x y) (h2 x)))))
(assert (forall ((x Int) (y Int)) (= (f1 x y) (v2 x y))))
(assert (forall ((x Int)) (= (g1 x) x)))
(assert (forall ((x Int)) (= (h1 x) (+ 1 x))))
(assert (forall ((x Int) (y Int)) (= (u1 x y) (ite (<= x 0) y (f1 (u1 (- x 1) y) x)))))
(assert (forall ((x Int)) (= (v1 x) (u1 (g1 x) (h1 x)))))
(assert (forall ((x Int) (y Int)) (= (f0 x y) (+ (divf (+ (v1 x) y) (+ 2 x)) x))))
(assert (forall ((x Int)) (= (g0 x) x)))
(assert (forall ((x Int)) (= (h0 x) x)))
(assert (forall ((x Int) (y Int)) (= (u0 x y) (ite (<= x 0) y (f0 (u0 (- x 1) y) x)))))
(assert (forall ((x Int)) (= (v0 x) (u0 (g0 x) (h0 x)))))
(assert (forall ((x Int)) (= (small x) (- (v0 x) x))))
(assert (forall ((x Int) (y Int)) (= (f7 x y) (+ x y))))
(assert (forall ((x Int)) (= (g7 x) x)))
(assert (forall ((x Int) (y Int)) (= (h7 x y) y)))
(assert (forall ((x Int) (y Int)) (= (u7 x y) (ite (<= x 0) y (f7 (u7 (- x 1) y) x)))))
(assert (forall ((x Int) (y Int)) (= (v7 x y) (u7 (g7 x) (h7 x y)))))
(assert (forall ((x Int) (y Int)) (= (f6 x y) (divf (v7 x y) (+ 2 x)))))
(assert (forall ((x Int) (y Int)) (= (g6 x y) y)))
(assert (= h6 (+ 1 2)))
(assert (= i6 2))
(assert (forall ((x Int)) (= (j6 x) (divf (- x 2) 2))))
(assert (forall ((x Int) (y Int) (z Int)) (= (u6 x y z) (ite (<= x 0) y (f6 (u6 (- x 1) y z) (v6 (- x 1) y z))))))
(assert (forall ((x Int) (y Int) (z Int)) (= (v6 x y z) (ite (<= x 0) z (g6 (u6 (- x 1) y z) (v6 (- x 1) y z))))))
(assert (forall ((x Int)) (= (w6 x) (u6 h6 i6 (j6 x)))))
(assert (forall ((x Int)) (= (f5 x) (+ (+ (w6 x) 2) x))))
(assert (= g5 2))
(assert (forall ((x Int)) (= (h5 x) x)))
(assert (forall ((x Int) (y Int)) (= (u5 x y) (ite (<= x 0) y (f5 (u5 (- x 1) y))))))
(assert (forall ((x Int)) (= (v5 x) (u5 g5 (h5 x)))))
(assert (forall ((x Int)) (= (f4 x) (modf (+ (+ (v5 x) 1) x) 2))))
(assert (= g4 1))
(assert (forall ((x Int) (y Int)) (= (h4 x y) y)))
(assert (forall ((x Int) (y Int)) (= (u4 x y) (ite (<= x 0) y (f4 (u4 (- x 1) y))))))
(assert (forall ((x Int) (y Int)) (= (v4 x y) (u4 g4 (h4 x y)))))
(assert (forall ((x Int) (y Int)) (= (f3 x y) (+ (v4 x y) x))))
(assert (forall ((x Int)) (= (g3 x) (- x 1))))
(assert (= h3 1))
(assert (forall ((x Int) (y Int)) (= (u3 x y) (ite (<= x 0) y (f3 (u3 (- x 1) y) x)))))
(assert (forall ((x Int)) (= (v3 x) (u3 (g3 x) h3))))
(assert (forall ((x Int)) (= (fast x) (modf (- (* (v3 x) 2) x) (+ 1 x)))))
(assert (exists ((c Int)) (and (>= c 0) (not (= (small c) (fast c))))))
(check-sat)
